Gurobi Optimizer version 9.1.2 build v9.1.2rc0 (linux64)
Thread count: 36 physical cores, 72 logical processors, using up to 32 threads
Optimize a model with 12 rows, 57 columns and 590 nonzeros
Model fingerprint: 0xf32eec78
Model has 47 quadratic constraints
Coefficient statistics:
  Matrix range     [2e-05, 3e+00]
  QMatrix range    [1e+00, 1e+00]
  QLMatrix range   [1e+00, 1e+00]
  Objective range  [8e-03, 7e-01]
  Bounds range     [1e+00, 1e+00]
  RHS range        [1e+00, 1e+00]
Presolve removed 9 rows and 0 columns

Continuous model is non-convex -- solving as a MIP.

Presolve removed 9 rows and 0 columns
Presolve time: 0.00s
Presolved: 189 rows, 57 columns, 443 nonzeros
Presolved model has 47 bilinear constraint(s)
Variable types: 57 continuous, 0 integer (0 binary)

Root relaxation: objective -1.743721e+00, 44 iterations, 0.00 seconds

    Nodes    |    Current Node    |     Objective Bounds      |     Work
 Expl Unexpl |  Obj  Depth IntInf | Incumbent    BestBd   Gap | It/Node Time

     0     0   -1.74372    0   38          -   -1.74372      -     -    0s
H    0     0                       0.6147548   -1.74372   384%     -    0s
     0     0   -1.64739    0    1    0.61475   -1.64739   368%     -    0s
H    0     0                      -1.6450460   -1.64739  0.14%     -    0s
     0     0     cutoff    0        -1.64505   -1.64505  0.00%     -    0s

Cutting planes:
  RLT: 25
  BQP: 3

Explored 1 nodes (76 simplex iterations) in 0.01 seconds
Thread count was 32 (of 72 available processors)

Solution count 2: -1.64505 0.614755 
No other solutions better than -1.64505

Optimal solution found (tolerance 1.00e-04)
Best objective -1.645045978473e+00, best bound -1.645045978473e+00, gap 0.0000%

User-callback calls 78, time in user-callback 0.00 sec
Gurobi Optimizer version 9.1.2 build v9.1.2rc0 (linux64)
Thread count: 36 physical cores, 72 logical processors, using up to 32 threads
Optimize a model with 24 rows, 120 columns and 2480 nonzeros
Model fingerprint: 0x64b09d57
Model has 100 quadratic constraints
Coefficient statistics:
  Matrix range     [8e-06, 4e+00]
  QMatrix range    [1e+00, 1e+00]
  QLMatrix range   [1e+00, 1e+00]
  Objective range  [5e-03, 1e+00]
  Bounds range     [1e+00, 1e+00]
  RHS range        [1e+00, 1e+00]
Presolve removed 17 rows and 0 columns

Continuous model is non-convex -- solving as a MIP.

Presolve removed 17 rows and 0 columns
Presolve time: 0.00s
Presolved: 407 rows, 120 columns, 1231 nonzeros
Presolved model has 100 bilinear constraint(s)
Variable types: 120 continuous, 0 integer (0 binary)

Root relaxation: objective -7.677676e+00, 142 iterations, 0.00 seconds

    Nodes    |    Current Node    |     Objective Bounds      |     Work
 Expl Unexpl |  Obj  Depth IntInf | Incumbent    BestBd   Gap | It/Node Time

     0     0   -7.67768    0  100          -   -7.67768      -     -    0s
H    0     0                       1.1119358   -7.67768   790%     -    0s
     0     0   -5.38950    0  100    1.11194   -5.38950   585%     -    0s
H    0     0                       0.5984305   -5.38950  1001%     -    0s
     0     0   -4.81842    0   90    0.59843   -4.81842   905%     -    0s
H    0     0                      -0.3955470   -4.81842  1118%     -    0s
     0     0   -4.75809    0   90   -0.39555   -4.75809  1103%     -    0s
     0     0   -4.49574    0  100   -0.39555   -4.49574  1037%     -    0s
     0     0   -4.49134    0  100   -0.39555   -4.49134  1035%     -    0s
     0     0   -4.43518    0  100   -0.39555   -4.43518  1021%     -    0s
     0     0   -4.43014    0  100   -0.39555   -4.43014  1020%     -    0s
     0     0   -4.40677    0  100   -0.39555   -4.40677  1014%     -    0s
     0     0   -4.39982    0  100   -0.39555   -4.39982  1012%     -    0s
     0     0   -4.39546    0  100   -0.39555   -4.39546  1011%     -    0s
     0     0   -4.39408    0  100   -0.39555   -4.39408  1011%     -    0s
     0     0   -4.39307    0  100   -0.39555   -4.39307  1011%     -    0s
H    0     0                      -0.9318873   -4.39307   371%     -    0s
H    0     0                      -1.3623889   -4.39307   222%     -    0s
     0     2   -4.39307    0  100   -1.36239   -4.39307   222%     -    0s
* 1104  1252              34      -1.3964085   -3.90726   180%  26.1    0s
* 1141  1252              26      -3.1448970   -3.90726  24.2%  25.6    0s
* 1182  1252              22      -3.4841432   -3.90726  12.1%  25.1    0s
* 1602  1243              19      -3.4843454   -3.79545  8.93%  22.8    0s
* 1603  1243              19      -3.4843533   -3.79545  8.93%  22.8    0s
* 1952  1508              25      -3.6420530   -3.70314  1.68%  20.7    0s
* 2324  1597              28      -3.6525117   -3.69419  1.14%  19.1    0s
* 2327  1597              28      -3.6525146   -3.69419  1.14%  19.1    0s
* 2416  1597              33      -3.6734518   -3.69419  0.56%  18.6    0s
* 2696  1819              20      -3.6871157   -3.69034  0.09%  17.5    0s
* 3706   990              21      -3.6871185   -3.68712  0.00%  14.0    0s

Cutting planes:
  RLT: 91
  BQP: 17
  PSD: 16

Explored 3895 nodes (52190 simplex iterations) in 0.67 seconds
Thread count was 32 (of 72 available processors)

Solution count 10: -3.68712 -3.68712 -3.67345 ... -3.1449
No other solutions better than -3.68712

Optimal solution found (tolerance 1.00e-04)
Best objective -3.687118533184e+00, best bound -3.687118533184e+00, gap 0.0000%

User-callback calls 8085, time in user-callback 0.00 sec



objective value: -3.6871185331840977
objective bound: -3.6871185331840977
x_opt: [0.0, 1.0, 1.0, 1.0000000000000002, 1.0, 0.0, 0.0, 0.0, 0.27949803082492913, 1.0, 0.0, 0.22515667836750816, 1.0, 1.0, 1.0, 4.762378685485211e-7, 0.0, 0.0, 0.05310062423651905, 0.49492109570700965]
GUROBI solution time: 0.6650750637054443




